S = 4;
start = [|0,0,12,3,2,13,8,0,6,0,7,10,0,0,1,14|
0,0,0,0,0,0,0,0,0,0,5,0,13,0,7,0|
0,0,10,0,0,4,1,0,0,0,0,13,3,0,0,0|
0,9,0,11,0,0,3,0,0,0,2,1,12,6,4,0|
0,10,0,5,6,8,11,0,0,0,0,0,0,0,16,0|
0,8,0,0,0,0,0,0,10,0,0,0,0,0,0,0|
0,0,0,0,0,0,0,0,0,8,6,0,0,0,11,3|
0,0,0,0,0,0,0,12,13,0,0,5,10,2,0,0|
14,0,0,8,0,6,0,1,16,0,0,0,15,0,3,0|
0,0,15,0,11,5,0,0,0,0,0,0,7,0,0,0|
11,5,0,0,3,0,12,0,0,0,0,0,0,0,0,0|
0,0,13,0,4,0,0,0,0,1,0,0,0,0,12,0|
0,0,0,13,0,0,0,0,0,2,0,0,0,0,5,0|
0,0,0,0,0,0,0,0,0,5,0,0,0,0,0,12|
0,3,5,0,1,0,0,0,0,15,0,0,0,0,13,0|
8,0,0,0,16,0,0,0,0,0,0,6,0,0,0,0|];